(declare-fun bvlambda_25_ ()Bool         )
(declare-fun a158 () (Array (_ BitVec 1) (_ BitVec 13)))
(assert
(let (($e40 (_ bv0 13)))
(let (($e78 (_ bv7346 13)))
(let (($e603 (store a158 true        $e40)))
(let (($e605 (select $e603 (not   bvlambda_25_))))
                  (=        $e78  $e605)
                                                                                                                                                                                                                                                                                                                                                                                                                                                                                                                                                                                                                                                                                                                                                                                                                                                                                                                                                                                                                                                                                                                                                                                                                                                                                                                                                                                                                                                                                                                                                                                                                                                                                                                                                                                                                                                                                                                                                                                                                          ) )                                                                                                                                                                                                                                                                                                                                                                                                                                                                                                     )                                     )                                       )
